40
398
20
0 2
0 4
0 5
0 7
0 8
0 9
0 10
0 14
0 16
0 17
0 18
0 19
0 26
0 27
0 28
0 29
0 30
0 31
0 32
0 33
0 35
0 36
0 38
1 2
1 5
1 7
1 8
1 9
1 11
1 12
1 13
1 14
1 15
1 16
1 17
1 21
1 22
1 26
1 28
1 29
1 31
1 32
1 33
1 34
1 37
1 39
2 6
2 8
2 10
2 11
2 12
2 13
2 15
2 20
2 21
2 22
2 23
2 24
2 25
2 29
2 32
2 37
2 38
3 4
3 6
3 9
3 10
3 13
3 14
3 15
3 17
3 18
3 19
3 20
3 21
3 24
3 25
3 30
3 32
3 34
3 38
3 39
4 5
4 8
4 9
4 14
4 18
4 19
4 21
4 22
4 24
4 25
4 26
4 27
4 28
4 29
4 30
4 33
4 37
4 39
5 6
5 7
5 10
5 11
5 12
5 13
5 14
5 15
5 16
5 27
5 28
5 33
5 34
5 39
6 8
6 10
6 11
6 15
6 17
6 19
6 24
6 26
6 29
6 31
6 32
6 33
6 35
6 36
6 37
6 39
7 9
7 11
7 12
7 13
7 14
7 15
7 19
7 20
7 21
7 22
7 23
7 26
7 31
7 33
7 34
7 36
7 37
7 39
8 9
8 10
8 11
8 14
8 15
8 18
8 19
8 21
8 22
8 24
8 26
8 28
8 31
8 33
8 34
8 35
8 36
8 37
8 39
9 10
9 12
9 13
9 14
9 15
9 16
9 17
9 18
9 19
9 20
9 27
9 28
9 29
9 31
9 32
9 33
9 35
9 36
9 37
10 11
10 12
10 17
10 18
10 24
10 26
10 27
10 30
10 31
10 34
10 36
10 37
10 38
11 14
11 15
11 17
11 18
11 20
11 22
11 23
11 24
11 26
11 27
11 29
11 31
11 33
11 35
11 37
11 39
12 13
12 14
12 15
12 18
12 20
12 21
12 22
12 24
12 26
12 29
12 30
12 31
12 34
12 35
12 37
12 39
13 15
13 28
13 30
13 31
13 34
13 35
13 37
13 38
14 15
14 19
14 20
14 22
14 23
14 24
14 26
14 29
14 30
14 31
14 33
14 34
14 37
14 38
14 39
15 20
15 21
15 23
15 24
15 28
15 29
15 31
15 32
15 38
16 20
16 22
16 23
16 24
16 26
16 27
16 29
16 37
16 38
17 22
17 23
17 24
17 25
17 27
17 28
17 32
17 35
17 36
17 39
18 22
18 23
18 24
18 26
18 27
18 28
18 29
18 30
18 31
18 32
18 33
18 36
18 38
19 20
19 26
19 27
19 30
19 32
19 34
19 36
19 37
19 38
19 39
20 21
20 22
20 24
20 25
20 27
20 28
20 29
20 30
20 31
20 32
20 34
20 36
21 24
21 25
21 28
21 30
21 32
21 34
21 39
22 24
22 25
22 27
22 29
22 31
22 33
22 34
22 36
22 38
23 26
23 28
23 29
23 30
23 31
23 39
24 26
24 29
24 32
24 33
24 34
24 36
24 39
25 29
25 30
25 31
25 32
25 33
25 34
25 36
25 37
25 39
26 29
26 30
26 32
26 33
26 36
26 38
27 28
27 29
27 30
27 35
28 31
28 32
28 33
28 35
28 36
29 30
29 31
29 32
29 34
29 36
30 34
30 36
30 37
30 39
31 32
31 36
31 38
31 39
32 33
32 35
32 36
32 37
32 38
33 34
33 35
33 38
33 39
34 35
34 37
35 36
35 39
36 37
37 39
9 32
6 12
16 22
20 39
25 31
0 11
3 17
5 27
24 35
4 34
7 23
8 26
10 21
15 37
1 29
2 28
13 30
19 36
18 33
14 38
